NAME : Data/Random/100RandomPoints.tsp
COMMENT : Optimal tour for Data/Random/100RandomPoints.tsp (tourLength = 716.2892440650967)
TYPE : TOUR
DIMENSION : 100
TOUR_SECTION
47
1
29
64
32
62
4
19
55
98
48
76
34
61
12
27
37
45
40
68
80
58
28
73
86
95
17
36
25
74
97
2
31
21
87
69
59
11
67
57
18
81
38
41
91
60
70
99
3
53
100
33
30
96
56
39
71
88
44
24
83
16
52
85
82
89
26
15
78
10
20
22
49
92
77
7
8
75
5
54
65
90
93
51
46
14
94
63
13
79
43
42
50
35
23
84
6
72
9
66
-1
EOF